c 1 2 3 4 46 5 47 6 51 29 13 30 14 31 15 32 16 33 17 34 18 7 8 9 10 11 12 19 20 21 22 23 24 25 26 27 28 35 36 37 38 39 40 41 42 43 44 45 48 49 50 52 
p wcnf 95 52 10
10 -1 7 
10 -2 8 
10 -3 9 
10 -4 10 
10 -5 11 
10 -6 12 
10 -13 1 
10 -14 1 
10 -15 1 
10 -16 1 
10 -17 1 
10 -18 1 
10 -13 19 
10 -13 20 
10 -13 21 
10 -13 22 
10 -13 23 
10 -14 20 
10 -14 21 
10 -14 22 
10 -14 23 
10 -14 24 
10 -15 21 
10 -15 22 
10 -15 23 
10 -15 24 
10 -15 25 
10 -16 22 
10 -16 23 
10 -16 24 
10 -16 25 
10 -16 26 
10 -17 23 
10 -17 24 
10 -17 25 
10 -17 26 
10 -17 27 
10 -18 24 
10 -18 25 
10 -18 26 
10 -18 27 
10 -18 28 
10 -29 1 
10 -30 1 
10 -31 1 
10 -32 1 
10 -33 1 
10 -34 1 
10 -29 35 
10 -29 36 
10 -29 37 
10 -29 38 
10 -29 39 
10 -29 40 
10 -30 36 
10 -30 37 
10 -30 38 
10 -30 39 
10 -30 40 
10 -30 41 
10 -31 37 
10 -31 38 
10 -31 39 
10 -31 40 
10 -31 41 
10 -31 42 
10 -32 38 
10 -32 39 
10 -32 40 
10 -32 41 
10 -32 42 
10 -32 43 
10 -33 39 
10 -33 40 
10 -33 41 
10 -33 42 
10 -33 43 
10 -33 44 
10 -34 40 
10 -34 41 
10 -34 42 
10 -34 43 
10 -34 44 
10 -34 45 
10 -46 13 
10 -47 13 
10 -46 48 
10 -46 49 
10 -47 49 
10 -47 50 
10 -51 29 46 
10 -51 52 
10 13 14 15 16 17 18 29 30 31 32 33 34 
10 13 14 15 16 17 18 29 30 31 32 33 34 46 47 
5 51 
